p tw 69 1366
0 1
0 2
0 3
0 4
0 5
0 6
0 7
0 8
0 33
0 35
0 38
0 39
0 40
0 41
0 42
0 21
0 22
0 23
0 43
0 46
0 58
0 66
0 13
0 15
0 19
0 24
0 25
0 36
0 44
0 47
0 27
0 30
0 31
0 53
0 48
0 55
0 20
0 28
0 34
0 37
0 49
0 59
0 63
1 2
1 3
1 4
1 5
1 6
1 7
1 8
1 9
1 17
1 23
1 25
1 29
1 30
1 26
1 31
1 32
1 33
1 34
1 35
1 36
1 37
1 15
1 24
1 43
1 46
1 47
1 48
1 18
1 39
1 41
1 50
1 60
1 61
1 62
1 11
1 38
1 57
1 63
1 16
1 19
1 40
1 27
1 44
1 66
1 68
1 55
2 3
2 4
2 5
2 6
2 7
2 8
2 20
2 21
2 22
2 23
2 24
2 25
2 26
2 27
2 28
2 33
2 35
2 38
2 39
2 40
2 41
2 42
2 15
2 43
2 46
2 47
2 48
2 13
2 29
2 36
2 51
2 52
2 53
2 12
2 34
2 44
2 50
2 54
2 55
2 56
2 57
2 58
2 11
2 32
2 63
2 19
2 18
2 16
2 10
2 61
2 62
2 64
2 66
2 67
2 37
2 68
3 4
3 5
3 6
3 7
3 8
3 9
3 17
3 23
3 25
3 29
3 30
3 12
3 31
3 33
3 37
3 41
3 43
3 44
3 45
3 18
3 36
3 39
3 50
3 60
3 61
3 62
3 20
3 27
3 46
3 66
3 19
3 40
3 48
3 55
3 10
3 26
3 53
3 63
4 5
4 6
4 7
4 8
4 26
4 31
4 32
4 33
4 34
4 35
4 36
4 37
4 38
4 39
4 40
4 41
4 42
4 9
4 12
4 20
4 29
4 49
4 52
4 57
4 60
4 18
4 27
4 44
4 46
4 66
4 13
4 15
4 19
4 24
4 25
4 47
4 11
4 68
4 16
4 23
4 63
5 6
5 7
5 8
5 15
5 24
5 33
5 43
5 46
5 47
5 48
5 21
5 22
5 23
5 42
5 58
5 66
6 7
6 8
6 15
6 24
6 33
6 43
6 46
6 47
6 48
6 14
6 25
6 28
6 34
6 38
6 42
6 45
6 49
6 50
6 51
6 13
6 23
6 29
6 36
6 52
6 53
6 10
6 20
6 27
6 32
6 54
6 57
6 59
6 9
6 12
6 21
6 40
6 63
6 67
6 31
6 44
6 60
6 64
6 68
6 19
6 55
7 8
7 9
7 17
7 23
7 25
7 29
7 30
7 33
7 35
7 38
7 39
7 40
7 41
7 42
7 18
7 36
7 50
7 60
7 61
7 62
7 16
7 21
7 44
7 56
7 32
7 37
7 57
7 63
8 12
8 31
8 33
8 37
8 41
8 43
8 44
8 45
8 9
8 20
8 29
8 49
8 52
8 57
8 60
8 16
8 23
8 32
8 63
9 10
9 11
9 12
9 13
9 14
9 15
9 16
9 17
9 18
9 19
9 23
9 25
9 29
9 30
9 20
9 49
9 52
9 57
9 60
9 42
9 45
9 48
9 56
9 59
9 64
9 65
9 21
9 40
9 63
9 67
10 11
10 12
10 13
10 14
10 15
10 16
10 17
10 18
10 19
10 20
10 27
10 32
10 43
10 54
10 57
10 59
10 21
10 29
10 37
10 51
10 58
10 62
10 66
10 36
10 46
10 49
10 50
10 26
10 33
10 61
10 64
10 67
10 53
10 60
10 63
11 12
11 13
11 14
11 15
11 16
11 17
11 18
11 19
11 21
11 29
11 37
11 51
11 58
11 62
11 66
11 24
11 25
11 28
11 32
11 35
11 63
11 36
11 46
11 49
11 50
11 57
11 38
11 48
11 27
11 34
11 44
11 68
11 43
11 47
11 20
11 67
12 13
12 14
12 15
12 16
12 17
12 18
12 19
12 31
12 33
12 37
12 41
12 43
12 44
12 45
12 34
12 47
12 50
12 54
12 55
12 56
12 57
12 58
12 20
12 29
12 49
12 52
12 60
12 21
12 24
12 48
12 64
12 65
12 40
12 63
12 67
12 25
12 28
12 32
12 35
12 51
12 36
12 68
12 26
12 46
12 53
12 61
13 14
13 15
13 16
13 17
13 18
13 19
13 23
13 24
13 29
13 36
13 51
13 52
13 53
13 21
13 40
13 45
13 63
13 67
13 25
13 44
13 47
14 15
14 16
14 17
14 18
14 19
14 25
14 28
14 34
14 38
14 42
14 45
14 49
14 50
14 51
14 48
14 56
14 59
14 60
14 64
14 65
14 20
14 39
14 53
14 55
14 66
14 43
14 47
14 58
15 16
15 17
15 18
15 19
15 24
15 33
15 43
15 46
15 47
15 48
15 20
15 27
15 32
15 54
15 57
15 59
15 25
15 38
15 39
15 53
15 55
15 66
15 21
15 40
15 45
15 63
15 67
15 36
15 44
15 22
15 30
15 31
15 35
16 17
16 18
16 19
16 24
16 26
16 29
16 37
16 38
16 40
16 42
16 46
16 47
16 63
16 21
16 51
16 58
16 62
16 66
16 36
16 49
16 50
16 57
16 32
16 34
16 39
16 41
16 35
16 44
16 56
16 61
16 33
16 54
16 64
16 67
16 23
17 18
17 19
17 23
17 25
17 29
17 30
17 20
17 24
17 38
17 44
17 51
17 53
17 61
17 21
17 35
17 56
18 19
18 36
18 39
18 41
18 50
18 60
18 61
18 62
18 21
18 46
18 49
18 57
18 20
18 27
18 31
18 44
18 66
18 24
18 38
18 48
18 63
18 51
18 53
19 42
19 45
19 48
19 56
19 59
19 60
19 64
19 65
19 25
19 29
19 32
19 33
19 39
19 46
19 54
19 61
19 24
19 36
19 44
19 47
19 34
19 40
19 41
19 50
19 43
19 49
19 51
19 58
19 55
19 31
19 35
20 21
20 22
20 23
20 24
20 25
20 26
20 27
20 28
20 32
20 43
20 54
20 57
20 59
20 29
20 49
20 52
20 60
20 38
20 39
20 53
20 55
20 66
20 31
20 41
20 44
20 46
20 51
20 61
20 36
20 37
20 48
20 58
20 67
20 68
20 30
20 34
20 47
20 63
21 22
21 23
21 24
21 25
21 26
21 27
21 28
21 29
21 44
21 48
21 49
21 52
21 54
21 64
21 65
21 40
21 45
21 63
21 67
21 37
21 51
21 58
21 62
21 66
21 36
21 46
21 50
21 57
21 42
21 43
21 35
21 38
21 56
21 61
22 23
22 24
22 25
22 26
22 27
22 28
22 42
22 43
22 46
22 58
22 66
22 30
22 31
22 35
22 44
22 53
22 34
22 37
22 47
22 49
22 59
22 63
23 24
23 25
23 26
23 27
23 28
23 29
23 30
23 36
23 51
23 52
23 53
23 42
23 43
23 46
23 58
23 66
23 31
23 33
23 40
23 44
23 54
23 60
23 64
23 68
23 32
23 37
23 57
23 63
24 25
24 26
24 27
24 28
24 33
24 43
24 46
24 47
24 48
24 29
24 36
24 51
24 52
24 53
24 37
24 38
24 40
24 42
24 63
24 44
24 49
24 54
24 64
24 65
24 32
24 35
24 50
24 57
24 61
25 26
25 27
25 28
25 29
25 30
25 34
25 38
25 42
25 45
25 49
25 50
25 51
25 39
25 53
25 55
25 66
25 32
25 35
25 63
25 33
25 46
25 54
25 60
25 61
25 36
25 44
25 47
25 40
25 43
25 48
25 37
25 58
25 67
25 68
26 27
26 28
26 31
26 32
26 33
26 34
26 35
26 36
26 37
26 29
26 38
26 40
26 42
26 46
26 47
26 63
26 54
26 61
26 62
26 64
26 66
26 67
26 53
26 60
27 28
27 32
27 43
27 54
27 57
27 59
27 31
27 41
27 44
27 46
27 60
27 66
27 34
27 68
27 30
27 35
27 53
28 34
28 38
28 42
28 45
28 49
28 50
28 51
28 32
28 35
28 63
28 30
28 37
28 47
28 59
29 30
29 36
29 51
29 52
29 53
29 49
29 57
29 60
29 37
29 38
29 40
29 42
29 46
29 47
29 63
29 44
29 48
29 54
29 64
29 65
29 58
29 62
29 66
29 32
29 33
29 39
29 61
29 34
29 41
29 50
29 35
29 56
30 31
30 35
30 44
30 46
30 53
30 34
30 37
30 47
30 49
30 59
30 63
31 32
31 33
31 34
31 35
31 36
31 37
31 41
31 43
31 44
31 45
31 46
31 60
31 66
31 40
31 51
31 54
31 64
31 68
31 53
31 49
31 56
32 33
32 34
32 35
32 36
32 37
32 43
32 54
32 57
32 59
32 51
32 63
32 39
32 42
32 46
32 60
32 61
32 40
32 41
32 50
32 44
32 66
32 68
33 34
33 35
33 36
33 37
33 38
33 39
33 40
33 41
33 42
33 43
33 44
33 45
33 46
33 47
33 48
33 54
33 60
33 61
33 51
33 64
33 68
33 62
33 66
33 67
34 35
34 36
34 37
34 38
34 42
34 45
34 49
34 50
34 51
34 44
34 47
34 54
34 55
34 56
34 57
34 58
34 39
34 40
34 41
34 46
34 66
34 68
34 43
34 48
34 59
34 63
35 36
35 37
35 38
35 39
35 40
35 41
35 42
35 51
35 63
35 44
35 46
35 53
35 56
35 61
35 43
35 49
35 60
36 37
36 51
36 52
36 53
36 39
36 41
36 50
36 60
36 61
36 62
36 46
36 49
36 57
36 44
36 47
36 38
36 48
36 63
36 58
36 67
36 68
37 41
37 43
37 44
37 45
37 38
37 40
37 42
37 46
37 47
37 63
37 51
37 58
37 62
37 66
37 48
37 67
37 68
37 49
37 59
37 57
38 39
38 40
38 41
38 42
38 45
38 49
38 50
38 51
38 46
38 47
38 63
38 53
38 55
38 66
38 48
38 57
38 44
38 61
38 56
39 40
39 41
39 42
39 50
39 60
39 61
39 62
39 53
39 55
39 66
39 46
39 54
40 41
40 42
40 46
40 47
40 63
40 45
40 67
40 44
40 51
40 54
40 60
40 64
40 68
40 50
40 43
40 48
40 55
41 42
41 43
41 44
41 45
41 50
41 60
41 61
41 62
41 46
41 66
42 45
42 49
42 50
42 51
42 46
42 47
42 63
42 48
42 56
42 59
42 60
42 64
42 65
42 54
42 61
42 43
42 58
42 66
43 44
43 45
43 46
43 47
43 48
43 54
43 57
43 59
43 58
43 66
43 49
43 51
43 55
43 56
43 60
44 45
44 47
44 50
44 54
44 55
44 56
44 57
44 58
44 48
44 49
44 52
44 64
44 65
44 46
44 60
44 66
44 51
44 68
44 53
44 61
45 49
45 50
45 51
45 48
45 56
45 59
45 60
45 64
45 65
45 63
45 67
46 47
46 48
46 63
46 54
46 60
46 61
46 49
46 50
46 57
46 58
46 66
46 68
46 53
47 48
47 50
47 54
47 55
47 56
47 57
47 58
47 63
47 49
47 51
47 59
48 56
48 59
48 60
48 64
48 65
48 49
48 52
48 54
48 50
48 57
48 63
48 51
48 58
48 55
48 67
48 68
49 50
49 51
49 52
49 57
49 60
49 54
49 64
49 65
49 58
49 59
49 63
49 56
50 51
50 54
50 55
50 56
50 57
50 58
50 60
50 61
50 62
50 63
51 52
51 53
51 58
51 62
51 66
51 63
51 54
51 60
51 64
51 68
51 61
51 56
52 53
52 57
52 60
52 54
52 64
52 65
53 55
53 66
53 61
53 60
53 63
54 55
54 56
54 57
54 58
54 59
54 64
54 65
54 60
54 61
54 68
54 62
54 66
54 67
55 56
55 57
55 58
55 66
56 57
56 58
56 59
56 60
56 64
56 65
56 61
57 58
57 59
57 60
57 63
58 62
58 66
58 67
58 68
59 60
59 64
59 65
59 63
60 61
60 62
60 64
60 65
60 66
60 68
60 63
61 62
61 64
61 66
61 67
61 63
62 66
62 64
62 67
63 67
64 65
64 68
64 66
64 67
66 68
66 67
67 68
